





























































































23 61 65 25 
70 53 0 29 
52 40 64 46 
63 60 7 11 
76 44 3 50 
13 21 49 67 
24 54 57 14 
66 16 28 
43 38 17 18 
8 69 20 
47 59 33 15 
37 34 48 
10 22 74 68 
26 73 31 56 
36 71 12 
35 62 30 55 
2 41 39 4 
9 75 1 45 
32 19 72 27 
51 42 5 
58 6 
